9
0 94 92 6 62 79 62 21 19 
65 0 25 45 10 22 91 14 86 
47 80 0 33 83 36 6 14 34 
61 18 9 0 31 38 32 41 24 
53 78 85 47 0 25 93 5 1 
9 1 25 36 33 0 46 85 77 
45 87 49 62 35 74 0 93 12 
30 48 99 76 28 86 47 0 47 
7 20 12 50 47 29 69 55 0 
